BAYES
324
2 2 2 2 2 2 2 2 2 2 2 2 2 2 2 2 2 2 2 2 2 2 2 2 2 2 2 2 2 2 2 2 2 2 2 2 2 2 2 2 2 2 2 2 2 2 2 2 2 2 2 2 2 2 2 2 2 2 2 2 2 2 2 2 2 2 2 2 2 2 2 2 2 2 2 2 2 2 2 2 2 2 2 2 2 2 2 2 2 2 2 2 2 2 2 2 2 2 2 2 2 2 2 2 2 2 2 2 2 2 2 2 2 2 2 2 2 2 2 2 2 2 2 2 2 2 2 2 2 2 2 2 2 2 2 2 2 2 2 2 2 2 2 2 2 2 2 2 2 2 2 2 2 2 2 2 2 2 2 2 2 2 2 2 2 2 2 2 2 2 2 2 2 2 2 2 2 2 2 2 2 2 2 2 2 2 2 2 2 2 2 2 2 2 2 2 2 2 2 2 2 2 2 2 2 2 2 2 2 2 2 2 2 2 2 2 2 2 2 2 2 2 2 2 2 2 2 2 2 2 2 2 2 2 2 2 2 2 2 2 2 2 2 2 2 2 2 2 2 2 2 2 2 2 2 2 2 2 2 2 2 2 2 2 2 2 2 2 2 2 2 2 2 2 2 2 2 2 2 2 2 2 2 2 2 2 2 2 2 2 2 2 2 2 2 2 2 2 2 2 2 2 2 2 2 2 2 2 2 2 2 2 2 2 2 2 2 2 2 2 2 2 2 2
324
1 0
2 0 1
2 1 2
2 2 3
2 3 4
2 4 5
2 5 6
2 6 7
2 7 8
2 8 9
2 9 10
2 10 11
2 11 12
2 12 13
2 13 14
2 14 15
2 15 16
2 16 17
2 0 18
3 1 18 19
3 2 19 20
3 3 20 21
3 4 21 22
3 5 22 23
3 6 23 24
3 7 24 25
3 8 25 26
3 9 26 27
3 10 27 28
3 11 28 29
3 12 29 30
3 13 30 31
3 14 31 32
3 15 32 33
3 16 33 34
3 17 34 35
2 18 36
3 19 36 37
3 20 37 38
3 21 38 39
3 22 39 40
3 23 40 41
3 24 41 42
3 25 42 43
3 26 43 44
3 27 44 45
3 28 45 46
3 29 46 47
3 30 47 48
3 31 48 49
3 32 49 50
3 33 50 51
3 34 51 52
3 35 52 53
2 36 54
3 37 54 55
3 38 55 56
3 39 56 57
3 40 57 58
3 41 58 59
3 42 59 60
3 43 60 61
3 44 61 62
3 45 62 63
3 46 63 64
3 47 64 65
3 48 65 66
3 49 66 67
3 50 67 68
3 51 68 69
3 52 69 70
3 53 70 71
2 54 72
3 55 72 73
3 56 73 74
3 57 74 75
3 58 75 76
3 59 76 77
3 60 77 78
3 61 78 79
3 62 79 80
3 63 80 81
3 64 81 82
3 65 82 83
3 66 83 84
3 67 84 85
3 68 85 86
3 69 86 87
3 70 87 88
3 71 88 89
2 72 90
3 73 90 91
3 74 91 92
3 75 92 93
3 76 93 94
3 77 94 95
3 78 95 96
3 79 96 97
3 80 97 98
3 81 98 99
3 82 99 100
3 83 100 101
3 84 101 102
3 85 102 103
3 86 103 104
3 87 104 105
3 88 105 106
3 89 106 107
2 90 108
3 91 108 109
3 92 109 110
3 93 110 111
3 94 111 112
3 95 112 113
3 96 113 114
3 97 114 115
3 98 115 116
3 99 116 117
3 100 117 118
3 101 118 119
3 102 119 120
3 103 120 121
3 104 121 122
3 105 122 123
3 106 123 124
3 107 124 125
2 108 126
3 109 126 127
3 110 127 128
3 111 128 129
3 112 129 130
3 113 130 131
3 114 131 132
3 115 132 133
3 116 133 134
3 117 134 135
3 118 135 136
3 119 136 137
3 120 137 138
3 121 138 139
3 122 139 140
3 123 140 141
3 124 141 142
3 125 142 143
2 126 144
3 127 144 145
3 128 145 146
3 129 146 147
3 130 147 148
3 131 148 149
3 132 149 150
3 133 150 151
3 134 151 152
3 135 152 153
3 136 153 154
3 137 154 155
3 138 155 156
3 139 156 157
3 140 157 158
3 141 158 159
3 142 159 160
3 143 160 161
2 144 162
3 145 162 163
3 146 163 164
3 147 164 165
3 148 165 166
3 149 166 167
3 150 167 168
3 151 168 169
3 152 169 170
3 153 170 171
3 154 171 172
3 155 172 173
3 156 173 174
3 157 174 175
3 158 175 176
3 159 176 177
3 160 177 178
3 161 178 179
2 162 180
3 163 180 181
3 164 181 182
3 165 182 183
3 166 183 184
3 167 184 185
3 168 185 186
3 169 186 187
3 170 187 188
3 171 188 189
3 172 189 190
3 173 190 191
3 174 191 192
3 175 192 193
3 176 193 194
3 177 194 195
3 178 195 196
3 179 196 197
2 180 198
3 181 198 199
3 182 199 200
3 183 200 201
3 184 201 202
3 185 202 203
3 186 203 204
3 187 204 205
3 188 205 206
3 189 206 207
3 190 207 208
3 191 208 209
3 192 209 210
3 193 210 211
3 194 211 212
3 195 212 213
3 196 213 214
3 197 214 215
2 198 216
3 199 216 217
3 200 217 218
3 201 218 219
3 202 219 220
3 203 220 221
3 204 221 222
3 205 222 223
3 206 223 224
3 207 224 225
3 208 225 226
3 209 226 227
3 210 227 228
3 211 228 229
3 212 229 230
3 213 230 231
3 214 231 232
3 215 232 233
2 216 234
3 217 234 235
3 218 235 236
3 219 236 237
3 220 237 238
3 221 238 239
3 222 239 240
3 223 240 241
3 224 241 242
3 225 242 243
3 226 243 244
3 227 244 245
3 228 245 246
3 229 246 247
3 230 247 248
3 231 248 249
3 232 249 250
3 233 250 251
2 234 252
3 235 252 253
3 236 253 254
3 237 254 255
3 238 255 256
3 239 256 257
3 240 257 258
3 241 258 259
3 242 259 260
3 243 260 261
3 244 261 262
3 245 262 263
3 246 263 264
3 247 264 265
3 248 265 266
3 249 266 267
3 250 267 268
3 251 268 269
2 252 270
3 253 270 271
3 254 271 272
3 255 272 273
3 256 273 274
3 257 274 275
3 258 275 276
3 259 276 277
3 260 277 278
3 261 278 279
3 262 279 280
3 263 280 281
3 264 281 282
3 265 282 283
3 266 283 284
3 267 284 285
3 268 285 286
3 269 286 287
2 270 288
3 271 288 289
3 272 289 290
3 273 290 291
3 274 291 292
3 275 292 293
3 276 293 294
3 277 294 295
3 278 295 296
3 279 296 297
3 280 297 298
3 281 298 299
3 282 299 300
3 283 300 301
3 284 301 302
3 285 302 303
3 286 303 304
3 287 304 305
2 288 306
3 289 306 307
3 290 307 308
3 291 308 309
3 292 309 310
3 293 310 311
3 294 311 312
3 295 312 313
3 296 313 314
3 297 314 315
3 298 315 316
3 299 316 317
3 300 317 318
3 301 318 319
3 302 319 320
3 303 320 321
3 304 321 322
3 305 322 323

2
0.69187 0.30813
4
0.86218 0.13782 0.722445 0.277555
4
0.0 1.0 1.0 0.0
4
1.0 0.0 0.0 1.0
4
0.402878 0.597122 0.866453 0.133547
4
1.0 0.0 0.0 1.0
4
0.0 1.0 1.0 0.0
4
0.0165673 0.983433 0.863878 0.136122
4
0.0 1.0 1.0 0.0
4
1.0 0.0 0.0 1.0
4
1.0 0.0 0.0 1.0
4
0.510806 0.489194 0.350369 0.649631
4
1.0 0.0 0.0 1.0
4
1.0 0.0 0.0 1.0
4
0.0 1.0 1.0 0.0
4
0.123436 0.876564 0.327974 0.672026
4
0.0 1.0 1.0 0.0
4
0.636105 0.363895 0.805226 0.194774
4
0.0 1.0 1.0 0.0
8
0.462017 0.537983 0.813766 0.186234 0.378008 0.621992 0.478584 0.521416
8
0.870675 0.129325 0.45693 0.54307 0.810274 0.189726 0.251394 0.748606
8
0.239995 0.760005 0.78044 0.21956 0.394426 0.605574 0.590364 0.409636
8
0.103547 0.896453 0.921209 0.0787914 0.770422 0.229578 0.504538 0.495462
8
1.0 0.0 1.0 0.0 1.0 0.0 0.0 1.0
8
1.0 0.0 1.0 0.0 1.0 0.0 0.0 1.0
8
1.0 0.0 0.0 1.0 0.0 1.0 1.0 0.0
8
0.758952 0.241048 0.892103 0.107897 0.971734 0.028266 0.569225 0.430775
8
0.0 1.0 0.0 1.0 0.0 1.0 1.0 0.0
8
1.0 0.0 1.0 0.0 0.0 1.0 1.0 0.0
8
0.0973829 0.902617 0.485839 0.514161 0.0432026 0.956797 0.647954 0.352046
8
0.159673 0.840327 0.834629 0.165371 0.351709 0.648291 0.733875 0.266125
8
1.0 0.0 1.0 0.0 1.0 0.0 0.0 1.0
8
0.0 1.0 0.0 1.0 0.0 1.0 1.0 0.0
8
0.0 1.0 1.0 0.0 0.0 1.0 1.0 0.0
8
0.848814 0.151186 0.715091 0.284909 0.0412538 0.958746 0.491958 0.508042
8
0.559265 0.440735 0.58934 0.41066 0.0587939 0.941206 0.602467 0.397533
4
1.0 0.0 0.0 1.0
8
0.0719227 0.928077 0.926664 0.0733357 0.496016 0.503984 0.174093 0.825907
8
0.266111 0.733889 0.357571 0.642429 0.938349 0.0616514 0.55101 0.44899
8
0.0 1.0 0.0 1.0 1.0 0.0 1.0 0.0
8
0.132532 0.867468 0.875254 0.124746 0.281394 0.718606 0.852992 0.147008
8
0.996485 0.00351456 0.894246 0.105754 0.216025 0.783975 0.569441 0.430559
8
1.0 0.0 1.0 0.0 0.0 1.0 1.0 0.0
8
0.114582 0.885418 0.129854 0.870146 0.314134 0.685866 0.288675 0.711325
8
0.0 1.0 1.0 0.0 0.0 1.0 1.0 0.0
8
0.837002 0.162998 0.938897 0.061103 0.757904 0.242096 0.736164 0.263836
8
0.890436 0.109564 0.611418 0.388582 0.13992 0.86008 0.743428 0.256572
8
0.0 1.0 1.0 0.0 0.0 1.0 1.0 0.0
8
1.0 0.0 0.0 1.0 0.0 1.0 1.0 0.0
8
0.965282 0.0347185 0.514118 0.485882 0.667124 0.332876 0.279416 0.720584
8
0.718771 0.281229 0.859661 0.140339 0.44904 0.55096 0.708767 0.291233
8
0.395288 0.604712 0.545769 0.454231 0.929813 0.0701868 0.153192 0.846808
8
1.0 0.0 0.0 1.0 0.0 1.0 1.0 0.0
8
0.228836 0.771164 0.0646635 0.935337 0.424731 0.575269 0.780346 0.219654
4
0.515916 0.484084 0.137222 0.862778
8
0.0 1.0 0.0 1.0 0.0 1.0 1.0 0.0
8
0.0 1.0 1.0 0.0 0.0 1.0 1.0 0.0
8
0.302708 0.697292 0.736522 0.263478 0.758354 0.241646 0.697996 0.302004
8
1.0 0.0 0.0 1.0 1.0 0.0 0.0 1.0
8
0.457574 0.542426 0.404765 0.595235 0.681874 0.318126 0.68641 0.31359
8
0.0 1.0 1.0 0.0 0.0 1.0 0.0 1.0
8
0.344527 0.655473 0.2856 0.7144 0.140736 0.859264 0.986387 0.0136128
8
0.191612 0.808388 0.295371 0.704629 0.821738 0.178262 0.0452801 0.95472
8
0.0 1.0 1.0 0.0 0.0 1.0 0.0 1.0
8
1.0 0.0 0.0 1.0 1.0 0.0 0.0 1.0
8
0.79199 0.20801 0.363735 0.636265 0.916968 0.083032 0.473864 0.526136
8
1.0 0.0 0.0 1.0 1.0 0.0 1.0 0.0
8
0.0 1.0 0.0 1.0 1.0 0.0 1.0 0.0
8
0.402551 0.597449 0.453227 0.546773 0.252619 0.747381 0.224288 0.775712
8
0.0 1.0 1.0 0.0 0.0 1.0 0.0 1.0
8
0.977332 0.0226677 0.196691 0.803309 0.789654 0.210346 0.883494 0.116506
8
0.581644 0.418356 0.247229 0.752771 0.625862 0.374138 0.0555083 0.944492
4
0.0 1.0 1.0 0.0
8
0.814276 0.185724 0.638592 0.361408 0.838967 0.161033 0.935155 0.0648449
8
0.327557 0.672443 0.196771 0.803229 0.5667 0.4333 0.730107 0.269893
8
0.819319 0.180681 0.954395 0.0456046 0.148505 0.851495 0.395065 0.604935
8
0.995001 0.00499874 0.0304587 0.969541 0.928853 0.0711474 0.887482 0.112518
8
1.0 0.0 0.0 1.0 1.0 0.0 1.0 0.0
8
1.0 0.0 0.0 1.0 1.0 0.0 0.0 1.0
8
0.0 1.0 1.0 0.0 0.0 1.0 1.0 0.0
8
0.0 1.0 0.0 1.0 1.0 0.0 1.0 0.0
8
0.0320885 0.967911 0.106621 0.893379 0.801292 0.198708 0.180594 0.819406
8
0.569151 0.430849 0.175595 0.824405 0.532145 0.467855 0.498003 0.501997
8
1.0 0.0 1.0 0.0 0.0 1.0 0.0 1.0
8
0.0 1.0 1.0 0.0 1.0 0.0 1.0 0.0
8
0.0 1.0 1.0 0.0 1.0 0.0 0.0 1.0
8
0.0 1.0 1.0 0.0 1.0 0.0 0.0 1.0
8
0.016466 0.983534 0.855287 0.144713 0.616514 0.383486 0.817758 0.182242
8
1.0 0.0 0.0 1.0 0.0 1.0 1.0 0.0
8
0.274554 0.725446 0.19028 0.80972 0.508459 0.491541 0.0147668 0.985233
4
0.966443 0.0335574 0.0137603 0.98624
8
0.0 1.0 1.0 0.0 1.0 0.0 1.0 0.0
8
1.0 0.0 1.0 0.0 0.0 1.0 0.0 1.0
8
0.716956 0.283044 0.510043 0.489957 0.829406 0.170594 0.572243 0.427757
8
0.0 1.0 0.0 1.0 1.0 0.0 0.0 1.0
8
0.895102 0.104898 0.918984 0.0810157 0.0941551 0.905845 0.0853829 0.914617
8
0.0 1.0 1.0 0.0 1.0 0.0 0.0 1.0
8
0.278611 0.721389 0.449725 0.550275 0.0949799 0.90502 0.554179 0.445821
8
1.0 0.0 1.0 0.0 1.0 0.0 0.0 1.0
8
0.0 1.0 0.0 1.0 0.0 1.0 1.0 0.0
8
0.968487 0.0315134 0.973196 0.0268037 0.33871 0.66129 0.213244 0.786756
8
1.0 0.0 0.0 1.0 1.0 0.0 1.0 0.0
8
1.0 0.0 0.0 1.0 0.0 1.0 1.0 0.0
8
0.0261928 0.973807 0.933795 0.0662046 0.893713 0.106287 0.580372 0.419628
8
0.441342 0.558658 0.912108 0.087892 0.657796 0.342204 0.882728 0.117272
8
1.0 0.0 0.0 1.0 1.0 0.0 0.0 1.0
8
0.0544097 0.94559 0.453651 0.546349 0.110365 0.889635 0.267654 0.732346
8
0.0 1.0 0.0 1.0 1.0 0.0 1.0 0.0
4
0.740868 0.259132 0.882531 0.117469
8
0.0 1.0 0.0 1.0 1.0 0.0 1.0 0.0
8
1.0 0.0 0.0 1.0 1.0 0.0 1.0 0.0
8
0.0 1.0 1.0 0.0 0.0 1.0 1.0 0.0
8
0.337039 0.662961 0.567181 0.432819 0.299584 0.700416 0.391449 0.608551
8
1.0 0.0 0.0 1.0 1.0 0.0 0.0 1.0
8
0.0 1.0 1.0 0.0 0.0 1.0 0.0 1.0
8
0.0 1.0 0.0 1.0 1.0 0.0 1.0 0.0
8
0.749299 0.250701 0.507045 0.492955 0.707897 0.292103 0.0238071 0.976193
8
1.0 0.0 1.0 0.0 0.0 1.0 0.0 1.0
8
0.0 1.0 1.0 0.0 1.0 0.0 0.0 1.0
8
0.630849 0.369151 0.835501 0.164499 0.353725 0.646275 0.112599 0.887401
8
0.388828 0.611172 0.981522 0.0184777 0.713894 0.286106 0.993662 0.006338
8
0.796193 0.203807 0.0688395 0.93116 0.689554 0.310446 0.245095 0.754905
8
0.0 1.0 1.0 0.0 1.0 0.0 0.0 1.0
8
0.0 1.0 0.0 1.0 1.0 0.0 0.0 1.0
8
0.0171497 0.98285 0.755322 0.244678 0.99466 0.00533967 0.627167 0.372833
8
0.0 1.0 1.0 0.0 0.0 1.0 1.0 0.0
4
0.0 1.0 1.0 0.0
8
1.0 0.0 0.0 1.0 1.0 0.0 1.0 0.0
8
0.0 1.0 0.0 1.0 1.0 0.0 1.0 0.0
8
0.280076 0.719924 0.827571 0.172429 0.945777 0.0542233 0.298277 0.701723
8
0.671129 0.328871 0.27259 0.72741 0.488243 0.511757 0.362616 0.637384
8
0.0 1.0 0.0 1.0 0.0 1.0 1.0 0.0
8
0.0 1.0 1.0 0.0 1.0 0.0 1.0 0.0
8
0.521402 0.478598 0.897677 0.102323 0.215707 0.784293 0.9469 0.0531004
8
0.256294 0.743706 0.441237 0.558763 0.474135 0.525865 0.541976 0.458024
8
1.0 0.0 1.0 0.0 0.0 1.0 0.0 1.0
8
0.0 1.0 1.0 0.0 0.0 1.0 1.0 0.0
8
0.0 1.0 1.0 0.0 0.0 1.0 0.0 1.0
8
1.0 0.0 0.0 1.0 0.0 1.0 0.0 1.0
8
0.0 1.0 1.0 0.0 1.0 0.0 0.0 1.0
8
1.0 0.0 0.0 1.0 1.0 0.0 0.0 1.0
8
0.140708 0.859292 0.942547 0.0574532 0.43953 0.56047 0.316947 0.683053
8
1.0 0.0 1.0 0.0 0.0 1.0 1.0 0.0
8
0.713485 0.286515 0.635438 0.364562 0.642379 0.357621 0.45986 0.54014
4
0.0 1.0 1.0 0.0
8
1.0 0.0 0.0 1.0 0.0 1.0 0.0 1.0
8
0.547224 0.452776 0.888645 0.111355 0.890002 0.109998 0.606058 0.393942
8
0.682041 0.317959 0.139027 0.860973 0.581624 0.418376 0.822749 0.177251
8
1.0 0.0 1.0 0.0 0.0 1.0 0.0 1.0
8
0.0 1.0 1.0 0.0 1.0 0.0 0.0 1.0
8
1.0 0.0 1.0 0.0 0.0 1.0 0.0 1.0
8
0.0 1.0 0.0 1.0 0.0 1.0 1.0 0.0
8
0.290469 0.709531 0.267368 0.732632 0.694497 0.305503 0.896527 0.103473
8
1.0 0.0 0.0 1.0 1.0 0.0 1.0 0.0
8
1.0 0.0 1.0 0.0 0.0 1.0 1.0 0.0
8
0.200465 0.799535 0.949098 0.0509022 0.197966 0.802034 0.61781 0.38219
8
1.0 0.0 0.0 1.0 1.0 0.0 1.0 0.0
8
0.936288 0.0637124 0.360187 0.639813 0.890313 0.109687 0.679532 0.320468
8
0.694809 0.305191 0.970001 0.0299987 0.00627738 0.993723 0.389306 0.610694
8
0.237791 0.762209 0.765845 0.234155 0.902083 0.0979166 0.0509292 0.949071
8
0.0192122 0.980788 0.885221 0.114779 0.304114 0.695886 0.515817 0.484183
8
1.0 0.0 0.0 1.0 1.0 0.0 1.0 0.0
4
0.0 1.0 1.0 0.0
8
0.829106 0.170894 0.890514 0.109486 0.591293 0.408707 0.454122 0.545878
8
0.95148 0.0485202 0.344435 0.655565 0.506334 0.493666 0.690389 0.309611
8
1.0 0.0 0.0 1.0 1.0 0.0 1.0 0.0
8
1.0 0.0 0.0 1.0 0.0 1.0 1.0 0.0
8
0.46364 0.53636 0.779976 0.220024 0.171134 0.828866 0.598507 0.401493
8
0.0 1.0 0.0 1.0 1.0 0.0 0.0 1.0
8
0.0 1.0 0.0 1.0 1.0 0.0 0.0 1.0
8
0.0145007 0.985499 0.458012 0.541988 0.0123585 0.987642 0.70489 0.29511
8
0.0 1.0 0.0 1.0 0.0 1.0 1.0 0.0
8
1.0 0.0 1.0 0.0 1.0 0.0 0.0 1.0
8
1.0 0.0 1.0 0.0 1.0 0.0 0.0 1.0
8
0.783902 0.216098 0.273212 0.726788 0.447246 0.552754 0.572611 0.427389
8
0.106701 0.893299 0.251834 0.748166 0.807961 0.192039 0.220278 0.779722
8
0.822462 0.177538 0.678291 0.321709 0.770217 0.229783 0.527352 0.472648
8
0.0 1.0 0.0 1.0 0.0 1.0 1.0 0.0
8
1.0 0.0 0.0 1.0 1.0 0.0 0.0 1.0
8
0.244649 0.755351 0.628278 0.371722 0.141482 0.858518 0.586523 0.413477
4
0.0 1.0 1.0 0.0
8
0.692422 0.307578 0.497994 0.502006 0.604675 0.395325 0.799123 0.200877
8
0.412636 0.587364 0.019401 0.980599 0.507686 0.492314 0.235098 0.764902
8
0.277903 0.722097 0.76245 0.23755 0.873238 0.126762 0.536813 0.463187
8
0.974591 0.0254086 0.627281 0.372719 0.956283 0.0437167 0.196145 0.803855
8
0.54261 0.45739 0.697426 0.302574 0.301891 0.698109 0.320947 0.679053
8
0.930169 0.069831 0.462429 0.537571 0.528598 0.471402 0.175345 0.824655
8
1.0 0.0 1.0 0.0 0.0 1.0 1.0 0.0
8
0.635634 0.364366 0.405644 0.594356 0.68629 0.31371 0.14332 0.85668
8
0.383982 0.616018 0.421222 0.578778 0.403192 0.596808 0.25722 0.74278
8
0.0945513 0.905449 0.231811 0.768189 0.585316 0.414684 0.0508346 0.949165
8
1.0 0.0 1.0 0.0 1.0 0.0 0.0 1.0
8
0.0 1.0 0.0 1.0 1.0 0.0 0.0 1.0
8
0.984388 0.0156118 0.654741 0.345259 0.650439 0.349561 0.977396 0.0226044
8
0.0 1.0 1.0 0.0 1.0 0.0 0.0 1.0
8
0.0 1.0 0.0 1.0 1.0 0.0 1.0 0.0
8
0.521524 0.478476 0.880934 0.119066 0.393967 0.606033 0.572359 0.427641
8
0.0 1.0 1.0 0.0 1.0 0.0 0.0 1.0
4
1.0 0.0 0.0 1.0
8
0.0 1.0 1.0 0.0 0.0 1.0 1.0 0.0
8
1.0 0.0 0.0 1.0 0.0 1.0 0.0 1.0
8
1.0 0.0 0.0 1.0 0.0 1.0 0.0 1.0
8
0.0 1.0 1.0 0.0 0.0 1.0 0.0 1.0
8
0.0 1.0 1.0 0.0 1.0 0.0 0.0 1.0
8
0.0 1.0 0.0 1.0 1.0 0.0 1.0 0.0
8
0.0 1.0 1.0 0.0 0.0 1.0 0.0 1.0
8
0.184718 0.815282 0.297898 0.702102 0.783998 0.216002 0.244291 0.755709
8
0.0 1.0 0.0 1.0 1.0 0.0 0.0 1.0
8
1.0 0.0 0.0 1.0 1.0 0.0 1.0 0.0
8
0.855478 0.144522 0.448799 0.551201 0.903095 0.0969055 0.269799 0.730201
8
0.406115 0.593885 0.139118 0.860882 0.835099 0.164901 0.410868 0.589132
8
1.0 0.0 0.0 1.0 1.0 0.0 0.0 1.0
8
0.162517 0.837483 0.221271 0.778729 0.942419 0.057581 0.290391 0.709609
8
1.0 0.0 0.0 1.0 1.0 0.0 1.0 0.0
8
0.0 1.0 0.0 1.0 0.0 1.0 1.0 0.0
8
0.0 1.0 1.0 0.0 1.0 0.0 0.0 1.0
4
0.0 1.0 1.0 0.0
8
0.140104 0.859896 0.176574 0.823426 0.0806509 0.919349 0.215171 0.784829
8
0.594061 0.405939 0.0797896 0.92021 0.139209 0.860791 0.292189 0.707811
8
0.0 1.0 1.0 0.0 0.0 1.0 1.0 0.0
8
0.788859 0.211141 0.217046 0.782954 0.646545 0.353455 0.240592 0.759408
8
0.47582 0.52418 0.766816 0.233184 0.75377 0.24623 0.766646 0.233354
8
0.0 1.0 1.0 0.0 0.0 1.0 1.0 0.0
8
0.0608389 0.939161 0.626047 0.373953 0.0243205 0.97568 0.14149 0.85851
8
0.726257 0.273743 0.735551 0.264449 0.921008 0.0789925 0.865465 0.134535
8
1.0 0.0 1.0 0.0 0.0 1.0 1.0 0.0
8
0.126278 0.873722 0.48487 0.51513 0.966898 0.0331019 0.772823 0.227177
8
0.844959 0.155041 0.248644 0.751356 0.492278 0.507722 0.598728 0.401272
8
0.0 1.0 0.0 1.0 0.0 1.0 1.0 0.0
8
0.369306 0.630694 0.0715629 0.928437 0.195675 0.804325 0.393626 0.606374
8
0.0 1.0 1.0 0.0 1.0 0.0 1.0 0.0
8
0.976344 0.0236561 0.121215 0.878785 0.211293 0.788707 0.238693 0.761307
8
0.961145 0.0388549 0.364971 0.635029 0.302096 0.697904 0.928043 0.0719568
8
0.0 1.0 1.0 0.0 1.0 0.0 0.0 1.0
4
0.0 1.0 1.0 0.0
8
0.0 1.0 0.0 1.0 1.0 0.0 0.0 1.0
8
1.0 0.0 1.0 0.0 0.0 1.0 0.0 1.0
8
1.0 0.0 1.0 0.0 0.0 1.0 1.0 0.0
8
0.0 1.0 1.0 0.0 1.0 0.0 1.0 0.0
8
0.963454 0.0365456 0.456049 0.543951 0.891931 0.108069 0.101248 0.898752
8
0.0 1.0 1.0 0.0 0.0 1.0 0.0 1.0
8
0.142947 0.857053 0.492079 0.507921 0.8127 0.1873 0.293174 0.706826
8
0.105292 0.894708 0.514965 0.485035 0.737842 0.262158 0.791511 0.208489
8
0.995454 0.00454587 0.597612 0.402388 0.333255 0.666745 0.210967 0.789033
8
1.0 0.0 0.0 1.0 1.0 0.0 0.0 1.0
8
0.355692 0.644308 0.254984 0.745016 0.157698 0.842302 0.247622 0.752378
8
1.0 0.0 0.0 1.0 1.0 0.0 1.0 0.0
8
0.787695 0.212305 0.441296 0.558704 0.546031 0.453969 0.0808695 0.91913
8
0.651323 0.348677 0.595834 0.404166 0.696261 0.303739 0.442834 0.557166
8
0.691715 0.308285 0.0404467 0.959553 0.878898 0.121102 0.902682 0.0973179
8
0.0 1.0 1.0 0.0 0.0 1.0 0.0 1.0
8
0.0 1.0 1.0 0.0 0.0 1.0 1.0 0.0
4
0.0 1.0 1.0 0.0
8
0.0 1.0 1.0 0.0 0.0 1.0 0.0 1.0
8
1.0 0.0 1.0 0.0 1.0 0.0 0.0 1.0
8
0.0 1.0 0.0 1.0 1.0 0.0 0.0 1.0
8
0.484718 0.515282 0.976772 0.0232276 0.162083 0.837917 0.0566615 0.943339
8
1.0 0.0 1.0 0.0 0.0 1.0 1.0 0.0
8
0.0 1.0 0.0 1.0 1.0 0.0 0.0 1.0
8
0.831887 0.168113 0.435709 0.564291 0.208609 0.791391 0.883826 0.116174
8
0.936305 0.0636952 0.481796 0.518204 0.283525 0.716475 0.62242 0.37758
8
0.343702 0.656298 0.0047954 0.995205 0.423217 0.576783 0.949522 0.0504777
8
1.0 0.0 1.0 0.0 1.0 0.0 0.0 1.0
8
0.0 1.0 0.0 1.0 1.0 0.0 0.0 1.0
8
0.0 1.0 0.0 1.0 0.0 1.0 1.0 0.0
8
0.968908 0.0310915 0.794795 0.205205 0.226525 0.773475 0.177517 0.822483
8
0.0457067 0.954293 0.113822 0.886178 0.160417 0.839583 0.329232 0.670768
8
0.891506 0.108494 0.672934 0.327066 0.741037 0.258963 0.314724 0.685276
8
0.819923 0.180077 0.470516 0.529484 0.0566965 0.943304 0.875581 0.124419
8
0.547598 0.452402 0.358389 0.641611 0.0896615 0.910338 0.958634 0.0413658
4
1.0 0.0 0.0 1.0
8
0.0 1.0 1.0 0.0 1.0 0.0 1.0 0.0
8
0.165963 0.834037 0.388599 0.611401 0.744458 0.255542 0.844584 0.155416
8
1.0 0.0 0.0 1.0 0.0 1.0 1.0 0.0
8
0.436471 0.563529 0.33556 0.66444 0.211232 0.788768 0.0589277 0.941072
8
0.0 1.0 1.0 0.0 1.0 0.0 0.0 1.0
8
0.389453 0.610547 0.559799 0.440201 0.621856 0.378144 0.809827 0.190173
8
0.0 1.0 0.0 1.0 1.0 0.0 1.0 0.0
8
0.0 1.0 1.0 0.0 0.0 1.0 0.0 1.0
8
1.0 0.0 1.0 0.0 1.0 0.0 0.0 1.0
8
1.0 0.0 1.0 0.0 0.0 1.0 0.0 1.0
8
0.206322 0.793678 0.540626 0.459374 0.995472 0.00452777 0.67646 0.32354
8
1.0 0.0 0.0 1.0 1.0 0.0 1.0 0.0
8
0.0 1.0 1.0 0.0 1.0 0.0 1.0 0.0
8
1.0 0.0 0.0 1.0 0.0 1.0 0.0 1.0
8
0.232069 0.767931 0.653029 0.346971 0.546424 0.453576 0.705435 0.294565
8
0.912498 0.0875021 0.514361 0.485639 0.490948 0.509052 0.337499 0.662501
8
0.0 1.0 1.0 0.0 1.0 0.0 1.0 0.0
4
1.0 0.0 0.0 1.0
8
0.907677 0.0923227 0.0539189 0.946081 0.957379 0.0426207 0.7635 0.2365
8
1.0 0.0 1.0 0.0 1.0 0.0 0.0 1.0
8
0.59951 0.40049 0.699821 0.300179 0.0811607 0.918839 0.216332 0.783668
8
0.73419 0.26581 0.762756 0.237244 0.637325 0.362675 0.700563 0.299437
8
0.151686 0.848314 0.191511 0.808489 0.0127533 0.987247 0.630456 0.369544
8
0.890878 0.109122 0.104697 0.895303 0.26251 0.73749 0.972851 0.0271487
8
0.872499 0.127501 0.880529 0.119471 0.0177834 0.982217 0.829878 0.170122
8
0.44754 0.55246 0.843813 0.156187 0.664636 0.335364 0.596294 0.403706
8
0.0 1.0 1.0 0.0 1.0 0.0 0.0 1.0
8
1.0 0.0 0.0 1.0 1.0 0.0 1.0 0.0
8
0.611132 0.388868 0.217028 0.782972 0.862899 0.137101 0.241588 0.758412
8
0.0 1.0 0.0 1.0 0.0 1.0 1.0 0.0
8
1.0 0.0 1.0 0.0 0.0 1.0 0.0 1.0
8
0.0 1.0 0.0 1.0 1.0 0.0 0.0 1.0
8
1.0 0.0 1.0 0.0 0.0 1.0 0.0 1.0
8
0.817268 0.182732 0.341145 0.658855 0.154598 0.845402 0.276713 0.723287
8
0.0 1.0 0.0 1.0 1.0 0.0 0.0 1.0
4
0.621421 0.378579 0.475717 0.524283
8
0.0 1.0 0.0 1.0 1.0 0.0 1.0 0.0
8
0.0 1.0 0.0 1.0 1.0 0.0 0.0 1.0
8
1.0 0.0 1.0 0.0 0.0 1.0 1.0 0.0
8
0.0 1.0 1.0 0.0 0.0 1.0 0.0 1.0
8
0.477885 0.522115 0.271638 0.728362 0.967657 0.0323431 0.36573 0.63427
8
0.8353 0.1647 0.495162 0.504838 0.544827 0.455173 0.456721 0.543279
8
0.602644 0.397356 0.804771 0.195229 0.756746 0.243254 0.90128 0.0987203
8
0.870546 0.129454 0.27061 0.72939 0.966371 0.0336293 0.759819 0.240181
8
0.0885855 0.911414 0.0208574 0.979143 0.943206 0.056794 0.636226 0.363774
8
0.32711 0.67289 0.200057 0.799943 0.657781 0.342219 0.528282 0.471718
8
0.0 1.0 0.0 1.0 1.0 0.0 0.0 1.0
8
0.0 1.0 1.0 0.0 0.0 1.0 0.0 1.0
8
0.379471 0.620529 0.685143 0.314857 0.594684 0.405316 0.28075 0.71925
8
0.0 1.0 1.0 0.0 0.0 1.0 1.0 0.0
8
0.0 1.0 1.0 0.0 1.0 0.0 1.0 0.0
8
1.0 0.0 0.0 1.0 0.0 1.0 1.0 0.0
8
0.0 1.0 1.0 0.0 0.0 1.0 0.0 1.0